50 9984
5094 4506 4416 992 6649 9237 6457 7815 9446 3422 8791 9359 5667 1598 2007 544 5334 2766 3994 9893 2633 7131 5428 6700 617 5874 7720 4419 9794 8196 5997 3116 5908 5539 5707 8569 5537 931 5726 5487 9772 7513 2081 9943 8058 4303 3764 6536 724 3789 
485 6326 9248 5421 322 5795 8043 2845 4955 9252 1009 5901 1122 1094 8738 8574 5715 8882 1367 9984 3299 9433 5682 72 7874 138 3856 7145 7995 1529 6199 3277 97 9719 5242 6107 1122 1070 6098 3600 6645 7267 1972 9895 3213 9748 9487 1923 7029 5674 
